NAME: cities_5_9
TYPE: TSP
COMMENT: Generated from CSV
DIMENSION: 5
EDGE_WEIGHT_TYPE: EUC_2D
NODE_COORD_SECTION
1 75.88103000384967 96.3602064186385
2 68.65136879304944 33.660768223910345
3 24.730939795752537 22.19406046242942
4 5.702803821352587 7.888156902456012
5 18.38292454593785 30.756162565834057
EOF
